
  22   10
  10   10   10   10   10   10   10   10   10   10

   0   0   0   0   0   0   0   0   0   0   0  16 2 3 4 5 6 7 8 9 10 11 12 13 14 15 20 21 
   5   0   0   0   0   0   0   0  10   0   0   2 18 17 
   9   0   0   0   0   0  10   0   0   0   0   2 17 16 
   5   0  10   0   0   0   0   0   0   0   0   2 18 16 
   8   0   0   0   0   0   0  10   0   0   0   2 17 16 
   3   0  10   0   0   0   0   0   0   0   0   2 17 16 
   8   0   0   0   0   0   0   0   0  10   0   2 19 16 
   2   0   0   0  10   0   0   0   0   0   0   2 19 16 
  10   0  10   0   0   0   0   0   0   0   0   2 18 16 
   9   0   0   0   0   0   0   0   0  10   0   2 18 16 
   7   0   0   0   0   0   0   0   0  10   0   1 19 
  10   0   0   0   0  10   0   0   0   0   0   1 18 
   8   0   0   0  10   0   0   0   0   0   0   1 17 
  10   0   0   0   0   0   0   0   0  10   0   1 17 
   2   0   0   0   0   0   0   0   0  10   0   1 16 
   4   0   0   0   0   0   0  10   0   0   0   1 22
   4   0   0   0   0   0   0   0  10   0   0   1 22
   5   0   0   0   0   0   0   0   0  10   0   1 22
   6   0   0   0   0   0   0   0   0   0  10   1 22
   5   0   0   0   0   0   0  10   0   0   0   1 22
   8   0   0   0   0   0   0  10   0   0   0   1 22
   0   0   0   0   0   0   0   0   0   0   0   0 
